Gurobi Optimizer version 9.1.2 build v9.1.2rc0 (linux64)
Thread count: 36 physical cores, 72 logical processors, using up to 32 threads
Optimize a model with 12 rows, 57 columns and 590 nonzeros
Model fingerprint: 0xf32eec78
Model has 47 quadratic constraints
Coefficient statistics:
  Matrix range     [2e-05, 3e+00]
  QMatrix range    [1e+00, 1e+00]
  QLMatrix range   [1e+00, 1e+00]
  Objective range  [8e-03, 7e-01]
  Bounds range     [1e+00, 1e+00]
  RHS range        [1e+00, 1e+00]
Presolve removed 9 rows and 0 columns

Continuous model is non-convex -- solving as a MIP.

Presolve removed 9 rows and 0 columns
Presolve time: 0.00s
Presolved: 189 rows, 57 columns, 443 nonzeros
Presolved model has 47 bilinear constraint(s)
Variable types: 57 continuous, 0 integer (0 binary)

Root relaxation: objective -1.743721e+00, 44 iterations, 0.00 seconds

    Nodes    |    Current Node    |     Objective Bounds      |     Work
 Expl Unexpl |  Obj  Depth IntInf | Incumbent    BestBd   Gap | It/Node Time

     0     0   -1.74372    0   38          -   -1.74372      -     -    0s
H    0     0                       0.6147548   -1.74372   384%     -    0s
     0     0   -1.64739    0    1    0.61475   -1.64739   368%     -    0s
H    0     0                      -1.6450460   -1.64739  0.14%     -    0s
     0     0     cutoff    0        -1.64505   -1.64505  0.00%     -    0s

Cutting planes:
  RLT: 25
  BQP: 3

Explored 1 nodes (76 simplex iterations) in 0.01 seconds
Thread count was 32 (of 72 available processors)

Solution count 2: -1.64505 0.614755 
No other solutions better than -1.64505

Optimal solution found (tolerance 1.00e-04)
Best objective -1.645045978473e+00, best bound -1.645045978473e+00, gap 0.0000%

User-callback calls 78, time in user-callback 0.00 sec
Gurobi Optimizer version 9.1.2 build v9.1.2rc0 (linux64)
Thread count: 36 physical cores, 72 logical processors, using up to 32 threads
Optimize a model with 60 rows, 300 columns and 15500 nonzeros
Model fingerprint: 0x6fcc709d
Model has 250 quadratic constraints
Coefficient statistics:
  Matrix range     [1e-06, 4e+00]
  QMatrix range    [1e+00, 1e+00]
  QLMatrix range   [1e+00, 1e+00]
  Objective range  [3e-04, 1e+00]
  Bounds range     [1e+00, 1e+00]
  RHS range        [1e+00, 1e+00]
Presolve removed 10 rows and 0 columns

Continuous model is non-convex -- solving as a MIP.

Presolve removed 10 rows and 0 columns
Presolve time: 0.01s
Presolved: 1050 rows, 300 columns, 14460 nonzeros
Presolved model has 250 bilinear constraint(s)
Variable types: 300 continuous, 0 integer (0 binary)

Root relaxation: objective -2.303366e+01, 347 iterations, 0.02 seconds

    Nodes    |    Current Node    |     Objective Bounds      |     Work
 Expl Unexpl |  Obj  Depth IntInf | Incumbent    BestBd   Gap | It/Node Time

     0     0  -23.03366    0  208          -  -23.03366      -     -    0s
H    0     0                      -3.2149067  -23.03366   616%     -    0s
     0     0  -20.43419    0  200   -3.21491  -20.43419   536%     -    0s
     0     0  -19.92804    0  187   -3.21491  -19.92804   520%     -    0s
     0     0  -19.90365    0  168   -3.21491  -19.90365   519%     -    0s
     0     0  -19.89485    0  179   -3.21491  -19.89485   519%     -    0s
     0     0  -19.89480    0  179   -3.21491  -19.89480   519%     -    0s
     0     0  -19.89106    0  127   -3.21491  -19.89106   519%     -    0s
H    0     0                     -14.6839056  -19.89106  35.5%     -    0s
H    0     0                     -15.6273348  -19.89106  27.3%     -    0s
     0     2  -19.89106    0  127  -15.62733  -19.89106  27.3%     -    0s
* 1803  1753              92     -15.6294070  -18.79453  20.3%  58.8    1s
* 1960  1897              91     -15.6294135  -18.79453  20.3%  56.1    1s
* 2052  1897              79     -16.2381419  -18.79453  15.7%  54.6    1s
* 2054  1897              80     -16.2381423  -18.79453  15.7%  54.6    1s
* 2151  1799             132     -16.5055489  -18.79453  13.9%  53.8    1s
* 2152  1799             132     -16.5055490  -18.79453  13.9%  53.7    1s
* 2279  1782             131     -16.5055493  -18.79453  13.9%  53.2    2s
* 2641  1911              70     -16.8880565  -18.79453  11.3%  54.5    2s
* 2642  1911              71     -16.8880570  -18.79453  11.3%  54.5    2s
* 5408  1486              68     -16.8880801  -18.62290  10.3%  59.6    4s
* 5409  1432              68     -16.8880801  -18.62290  10.3%  59.6    4s
* 5474  1359             117     -16.8888413  -18.62290  10.3%  59.5    4s
* 5623  1327             117     -16.8890203  -18.62290  10.3%  59.2    4s
* 5806  1401             102     -16.9444845  -18.62290  9.91%  58.8    4s
* 5974  1484             103     -16.9444885  -18.62290  9.91%  58.4    4s
* 5976  1484             104     -16.9444886  -18.62290  9.91%  58.4    4s
* 6252  1694              70     -17.5778009  -18.62290  5.95%  57.8    4s
  8070  1595     cutoff   29       -17.57780  -18.62290  5.95%  59.4    5s
*10944  1527              74     -17.5778041  -18.04579  2.66%  61.0    6s
*10946  1527              75     -17.5778049  -18.04579  2.66%  60.9    6s
*10948  1527              73     -17.5778081  -18.04579  2.66%  60.9    6s
*11310  1689              71     -17.5784001  -18.04579  2.66%  60.5    6s
*11312  1689              72     -17.5784289  -18.04579  2.66%  60.4    6s
*11314  1689              70     -17.5784661  -18.04579  2.66%  60.4    6s
*11499  1689              94     -17.5891364  -18.04579  2.60%  60.1    6s
*11501  1689              95     -17.5891453  -18.04579  2.60%  60.1    6s
*11940  1767              80     -17.6013007  -17.93502  1.90%  59.3    6s
*11943  1767              80     -17.6013012  -17.93502  1.90%  59.3    6s
*12278  2106              87     -17.6187628  -17.93502  1.79%  58.8    6s
*12279  2106              87     -17.6187634  -17.93502  1.79%  58.8    6s
*12922  1949              87     -17.6189021  -17.92268  1.72%  57.2    6s
*12923  1949              87     -17.6189062  -17.92268  1.72%  57.2    6s
*13174  1949              63     -17.6211648  -17.92268  1.71%  56.7    6s
*13177  1949              65     -17.6214902  -17.92268  1.71%  56.7    6s
*13178  1949              65     -17.6214942  -17.92268  1.71%  56.7    6s
*13444  1949              72     -17.6284767  -17.92268  1.67%  56.1    6s
*13678  2113              74     -17.6572149  -17.89110  1.32%  55.4    6s
*13680  2113              75     -17.6574184  -17.89110  1.32%  55.4    6s
*13682  2113              76     -17.6574231  -17.89110  1.32%  55.4    6s
*13684  2113              77     -17.6574233  -17.89110  1.32%  55.4    6s
*13686  2113              78     -17.6574234  -17.89110  1.32%  55.4    6s
*13687  2113              78     -17.6574235  -17.89110  1.32%  55.4    6s
*13715  2113              69     -17.6652219  -17.89110  1.28%  55.3    6s
*15037  1962              75     -17.6652451  -17.84433  1.01%  53.1    7s
*15079  1962              67     -17.6668356  -17.84433  1.00%  53.0    7s
*15278  1962              58     -17.6851494  -17.84433  0.90%  52.6    7s
*15956  1768              62     -17.6861980  -17.77267  0.49%  51.5    7s
*16672  2079              82     -17.6865657  -17.76311  0.43%  50.7    7s
*16674  2079              83     -17.6865827  -17.76311  0.43%  50.6    7s
*16675  2079              83     -17.6865830  -17.76311  0.43%  50.6    7s
*16681  2079              84     -17.6865832  -17.76311  0.43%  50.6    7s
*16788  2079              85     -17.6908656  -17.76311  0.41%  50.4    7s
*16789  2079              85     -17.6911455  -17.76311  0.41%  50.4    7s
*17153  2079              63     -17.6922825  -17.76311  0.40%  49.8    7s
*17568  2280              66     -17.6924862  -17.74129  0.28%  49.1    7s
*17571  2280              66     -17.6924920  -17.74129  0.28%  49.1    7s
*17578  2280              66     -17.6924925  -17.74129  0.28%  49.1    7s
*17799  2280              67     -17.6931650  -17.74129  0.27%  48.9    7s
*17800  2280              67     -17.6931651  -17.74129  0.27%  48.9    7s
*18173  2280              87     -17.7003719  -17.74129  0.23%  48.1    7s
*18573  2076              67     -17.7005995  -17.73244  0.18%  47.4    7s
*18575  2076              68     -17.7006082  -17.73244  0.18%  47.4    7s
*18644  2076              77     -17.7010200  -17.73244  0.18%  47.3    7s
*18648  2076              79     -17.7010211  -17.73244  0.18%  47.3    7s
*18649  2076              79     -17.7010211  -17.73244  0.18%  47.3    7s
*18653  2076              79     -17.7010212  -17.73244  0.18%  47.3    7s
*18654  2076              79     -17.7010212  -17.73244  0.18%  47.3    7s
*18891  2076              73     -17.7010914  -17.73244  0.18%  46.9    7s
*19275  2076              77     -17.7017445  -17.73244  0.17%  46.3    7s
*19276  2076              77     -17.7017470  -17.73244  0.17%  46.3    7s
*19781  2193              63     -17.7018272  -17.72090  0.11%  45.4    8s
*20050  2193              67     -17.7019478  -17.72090  0.11%  44.9    8s
*20052  2193              68     -17.7019608  -17.72090  0.11%  44.9    8s
*20055  2193              67     -17.7020010  -17.72090  0.11%  44.9    8s
*20056  2193              67     -17.7020014  -17.72090  0.11%  44.9    8s
*20160  2193              77     -17.7022581  -17.72090  0.11%  44.7    8s
*20410  2193              73     -17.7024495  -17.72090  0.10%  44.2    8s
*20870  2193              68     -17.7025077  -17.72090  0.10%  43.5    8s
*21050  2094              68     -17.7025769  -17.71897  0.09%  43.2    8s
*21052  2094              69     -17.7025839  -17.71897  0.09%  43.2    8s
*21054  2094              67     -17.7026026  -17.71897  0.09%  43.2    8s
*21098  2094              65     -17.7026422  -17.71474  0.07%  43.2    8s
*21100  2094              66     -17.7026508  -17.71474  0.07%  43.1    8s
*21101  2094              66     -17.7026508  -17.71474  0.07%  43.1    8s
*21437  2094              68     -17.7028165  -17.70984  0.04%  42.6    8s
*21440  2094              70     -17.7028264  -17.70984  0.04%  42.6    8s
*21443  2094              70     -17.7028265  -17.70984  0.04%  42.6    8s
*21444  2094              70     -17.7028266  -17.70984  0.04%  42.6    8s
*21445  2094              67     -17.7028393  -17.70984  0.04%  42.6    8s
*21447  2094              67     -17.7028414  -17.70984  0.04%  42.6    8s
*21468  2094              85     -17.7032705  -17.70969  0.04%  42.5    8s
*22704  1759              70     -17.7033056  -17.70772  0.02%  40.6    8s
*22706  1759              71     -17.7033092  -17.70772  0.02%  40.6    8s
*22976  1759              73     -17.7033105  -17.70772  0.02%  40.2    8s
*23461  1759              73     -17.7033170  -17.70772  0.02%  39.6    8s
*23463  1759              74     -17.7033206  -17.70772  0.02%  39.6    8s
*23464  1759              74     -17.7033206  -17.70772  0.02%  39.5    8s
*23689  1759              71     -17.7033589  -17.70772  0.02%  39.2    8s
*23693  1759              73     -17.7033658  -17.70772  0.02%  39.2    8s
*25004  1684              72     -17.7033742  -17.70456  0.01%  37.5    8s
*25007  1684              74     -17.7033824  -17.70456  0.01%  37.5    8s
*25008  1684              74     -17.7033825  -17.70456  0.01%  37.5    8s
*25009  1684              73     -17.7033827  -17.70456  0.01%  37.5    8s

Explored 25191 nodes (939961 simplex iterations) in 8.61 seconds
Thread count was 32 (of 72 available processors)

Solution count 10: -17.7034 -17.7034 -17.7034 ... -17.7033

Optimal solution found (tolerance 1.00e-04)
Best objective -1.770338269536e+01, best bound -1.770456433969e+01, gap 0.0067%

User-callback calls 51455, time in user-callback 0.01 sec



objective value: -17.703382695358155
objective bound: -17.7045643396921
x_opt: [0.0, 1.0, 1.0, 6.789408588459053e-6, 0.0, 0.0, 1.0, 1.0, 0.0, 0.0, 0.2651242623980882, 0.4184653410558998, 0.0, 1.0, 1.0, 1.0, 0.0, 1.0, 0.0, 0.0, 0.025160655918399392, 1.0, 1.0, 1.0, 0.0, 1.0, 1.0, 1.0, 0.0, 0.8993793551508988, 1.0, 0.7786404790261519, 0.0, 0.19590452900517255, 1.0, 1.0, 1.0, 1.0, 0.423148720700957, 1.0, 0.8708583172707108, 0.14887376117368603, 1.0, 0.0, 0.0, 0.703949064132024, 0.1347014265899015, 0.046299768490689265, 0.0, 1.0]
GUROBI solution time: 8.610440969467163

